algoritem_dodeljen_prostor/3363c141341f4598b7a4118c6ec82afb-pulp.mps
*SENSE:Maximize
NAME          MODEL
ROWS
 N  OBJ
 L  C0000000
 L  C0000001
 L  C0000002
 L  C0000003
 L  C0000004
 G  C0000005
 L  C0000006
 L  C0000007
 L  C0000008
 L  C0000009
 L  C0000010
 G  C0000011
 L  C0000012
 L  C0000013
 L  C0000014
 L  C0000015
 L  C0000016
 G  C0000017
COLUMNS
    X0000000  C0000000   1.000000000000e+00
    X0000000  C0000005  -5.846740644630e-01
    X0000000  C0000011   1.603725154107e+00
    X0000000  C0000017   1.686483402367e+00
    X0000000  OBJ        1.027454858721e+03
    X0000001  C0000001   1.000000000000e+00
    X0000001  C0000002   1.000000000000e+00
    X0000001  C0000005  -8.171466327470e-02
    X0000001  C0000011   2.241383172578e-01
    X0000001  C0000017   2.357046972305e-01
    X0000001  OBJ        1.435981736037e+02
    X0000002  C0000003   1.000000000000e+00
    X0000002  C0000004   1.000000000000e+00
    X0000002  C0000005  -1.818594851120e-01
    X0000002  C0000011   4.988294308126e-01
    X0000002  C0000017   5.245709051351e-01
    X0000002  OBJ        3.195838894520e+02
    X0000003  C0000005  -1.869667884263e-01
    X0000003  C0000006   1.000000000000e+00
    X0000003  C0000007   1.000000000000e+00
    X0000003  C0000011  -2.817207358215e-02
    X0000003  C0000017  -2.124215921467e-02
    X0000003  OBJ        3.311402054596e+01
    X0000004  C0000005  -4.603713062499e+00
    X0000004  C0000008   1.000000000000e+00
    X0000004  C0000011  -6.936854627472e-01
    X0000004  C0000017  -5.230490755892e-01
    X0000004  OBJ        8.153718113385e+02
    X0000005  C0000005  -4.353167585502e-01
    X0000005  C0000009   1.000000000000e+00
    X0000005  C0000010   1.000000000000e+00
    X0000005  C0000011  -6.559333802888e-02
    X0000005  C0000017  -4.945834483102e-02
    X0000005  OBJ        7.709972561417e+01
    X0000006  C0000005  -7.264295667781e-01
    X0000006  C0000011  -2.902854418141e-01
    X0000006  C0000012   1.000000000000e+00
    X0000006  C0000013   1.000000000000e+00
    X0000006  C0000017  -3.319959217239e-01
    X0000006  OBJ        1.369697511964e+02
    X0000007  C0000005  -8.075976493690e-01
    X0000007  C0000011  -3.227206754467e-01
    X0000007  C0000014   1.000000000000e+00
    X0000007  C0000015   1.000000000000e+00
    X0000007  C0000017  -3.690917030999e-01
    X0000007  OBJ        1.522741558985e+02
    X0000008  C0000005  -4.413119413650e+00
    X0000008  C0000011  -1.763507953636e+00
    X0000008  C0000016   1.000000000000e+00
    X0000008  C0000017  -2.016902552453e+00
    X0000008  OBJ        8.321025130741e+02
    MARK      'MARKER'                 'INTORG'
    X0000009  C0000000  -1.000000000000e+00
    X0000009  C0000001  -1.000000000000e+00
    X0000009  C0000003  -1.000000000000e+00
    X0000009  C0000007   1.000000000000e+00
    X0000009  C0000013   1.000000000000e+00
    X0000009  OBJ       -1.407486387213e+00
    MARK      'MARKER'                 'INTEND'
    MARK      'MARKER'                 'INTORG'
    X0000010  C0000002   1.000000000000e+00
    X0000010  C0000006  -1.000000000000e+00
    X0000010  C0000008  -1.000000000000e+00
    X0000010  C0000009  -1.000000000000e+00
    X0000010  C0000015   1.000000000000e+00
    X0000010  OBJ       -4.780142447137e-01
    MARK      'MARKER'                 'INTEND'
    MARK      'MARKER'                 'INTORG'
    X0000011  C0000004   1.000000000000e+00
    X0000011  C0000010   1.000000000000e+00
    X0000011  C0000012  -1.000000000000e+00
    X0000011  C0000014  -1.000000000000e+00
    X0000011  C0000016  -1.000000000000e+00
    X0000011  OBJ       -7.834122343920e-01
    MARK      'MARKER'                 'INTEND'
RHS
    RHS       C0000000   0.000000000000e+00
    RHS       C0000001   0.000000000000e+00
    RHS       C0000002   1.000000000000e+00
    RHS       C0000003   0.000000000000e+00
    RHS       C0000004   1.000000000000e+00
    RHS       C0000005  -1.500000000000e+01
    RHS       C0000006   0.000000000000e+00
    RHS       C0000007   1.000000000000e+00
    RHS       C0000008   0.000000000000e+00
    RHS       C0000009   0.000000000000e+00
    RHS       C0000010   1.000000000000e+00
    RHS       C0000011  -1.500000000000e+01
    RHS       C0000012   0.000000000000e+00
    RHS       C0000013   1.000000000000e+00
    RHS       C0000014   0.000000000000e+00
    RHS       C0000015   1.000000000000e+00
    RHS       C0000016   0.000000000000e+00
    RHS       C0000017  -1.500000000000e+01
BOUNDS
 BV BND       X0000009
 BV BND       X0000010
 BV BND       X0000011
ENDATA
