algoritem_dodeljen_prostor/3363c141341f4598b7a4118c6ec82afb-pulp.sol
Optimal - objective value 2672.26027027
      0 C0000000               0               1027.4549
      1 C0000001              -1                      -0
      2 C0000002               1               143.59817
      3 C0000003              -1                      -0
      4 C0000004               1               319.58389
      5 C0000005      -9.6015065                      -0
      6 C0000006              -1                      -0
      7 C0000007               1               33.114021
      8 C0000008               0               815.37181
      9 C0000009              -1                      -0
     10 C0000010               1               77.099726
     11 C0000011     -0.85346826                      -0
     12 C0000012              -1                      -0
     13 C0000013               1               136.96975
     14 C0000014              -1                      -0
     15 C0000015               1               152.27416
     16 C0000016               0               832.10251
     17 C0000017     -0.85346823                      -0
      0 X0000000               1                      -0
      1 X0000001               0                      -0
      2 X0000002               0                      -0
      3 X0000003               0                      -0
      4 X0000004               1                      -0
      5 X0000005               0                      -0
      6 X0000006               0                      -0
      7 X0000007               0                      -0
      8 X0000008               1                      -0
      9 X0000009               1                855.9636
     10 X0000010               1               519.02147
     11 X0000011               1               434.63549
